%%
% Autogenerated by /opt/prj/battleships-ai/src/server/solver.py, instance 2 8x8 [0] #3 <p3m3k6u>
% Source: https://www.puzzle-battleships.com/?size=2
%%

size = 8;
hints_num = 3;
hints = [| 3, 1 | 4, 7 | 6, 3 |];
ships_num = 9;

constr_rows = [0, 4, 1, 4, 2, 4, 2, 2];
constr_cols = [4, 1, 2, 3, 4, 0, 3, 2];

given_ships = [|
<>, <>, <>, <>, 1, |
<>, <>, <>, <>, 1, |
<>, <>, <>, <>, 1, |
<>, <>, <>, <>, 2, |
<>, <>, <>, <>, 2, |
<>, <>, <>, <>, 2, |
<>, <>, <>, <>, 3, |
<>, <>, <>, <>, 3, |
<>, <>, <>, <>, 4  |];

